% RUNS ON flatzinc

var 0..3: x1 :: output_var;
var 1.0..2.0: x2 :: output_var;
var 1.0..2.0: x3 :: output_var;
var 0.0..3.0: x4 :: output_var;
constraint array_var_float_element(3, [1.0, 2.0, 3.0], 2.0);
constraint array_var_float_element(x1, [x2, x3], x4);
solve satisfy;
